min: c;

c = 4.60766218816615 * u3_t10_h0 + 3.68897114494949 * u3_t10_h1 + 3.80465317995334 * u3_t4_h2 + 3.80465317995334 * u3_t10_h2 + 2.88243442279745 * u3_t4_h3 + 2.88243442279745 * u3_t10_h3 + 3.24736215992841 * u3_t4_h4 + 3.24736215992841 * u3_t10_h4 + 3.39361523937722 * u3_t4_h5 + 3.39361523937722 * u3_t10_h5 + 3.72086091258205 * u3_t4_h6 + 3.72086091258205 * u3_t10_h6 + 3.60027343461571 * u3_t4_h7 + 3.60027343461571 * u3_t9_h7 + 3.60027343461571 * u3_t10_h7 + 5.53635011224041 * u3_t4_h8 + 5.53635011224041 * u3_t9_h8 + 4.65351191369647 * u3_t4_h9 + 4.65351191369647 * u3_t9_h9 + 5.82005477994048 * u3_t4_h10 + 5.82005477994048 * u3_t6_h10 + 5.82005477994048 * u3_t9_h10 + 3.86920329817874 * u3_t3_h11 + 3.86920329817874 * u3_t4_h11 + 3.86920329817874 * u3_t6_h11 + 3.86920329817874 * u3_t9_h11 + 6.32451882850277 * u3_t3_h12 + 6.32451882850277 * u3_t4_h12 + 6.32451882850277 * u3_t6_h12 + 6.32451882850277 * u3_t9_h12 + 4.7420371412062 * u3_t3_h13 + 4.7420371412062 * u3_t4_h13 + 4.7420371412062 * u3_t5_h13 + 4.7420371412062 * u3_t6_h13 + 4.7420371412062 * u3_t9_h13 + 5.40238194490625 * u3_t3_h14 + 5.40238194490625 * u3_t4_h14 + 5.40238194490625 * u3_t5_h14 + 5.40238194490625 * u3_t6_h14 + 5.40238194490625 * u3_t9_h14 + 5.78492925309961 * u3_t2_h15 + 5.78492925309961 * u3_t3_h15 + 5.78492925309961 * u3_t4_h15 + 5.78492925309961 * u3_t5_h15 + 5.78492925309961 * u3_t6_h15 + 5.78492925309961 * u3_t9_h15 + 6.34096845204416 * u3_t2_h16 + 6.34096845204416 * u3_t4_h16 + 6.34096845204416 * u3_t5_h16 + 6.34096845204416 * u3_t6_h16 + 6.34096845204416 * u3_t9_h16 + 6.64960313543513 * u3_t2_h17 + 6.64960313543513 * u3_t4_h17 + 6.64960313543513 * u3_t6_h17 + 6.64960313543513 * u3_t9_h17 + 6.72080835191463 * u3_t2_h18 + 6.72080835191463 * u3_t6_h18 + 6.72080835191463 * u3_t9_h18 + 5.39202053311001 * u3_t2_h19 + 5.39202053311001 * u3_t9_h19 + 5.13029647968886 * u3_t1_h20 + 5.13029647968886 * u3_t2_h20 + 5.13029647968886 * u3_t8_h20 + 5.13029647968886 * u3_t9_h20 + 5.53280473024764 * u3_t1_h21 + 5.53280473024764 * u3_t2_h21 + 5.53280473024764 * u3_t7_h21 + 5.53280473024764 * u3_t8_h21 + 5.53280473024764 * u3_t9_h21 + 6.02896168236726 * u3_t1_h22 + 6.02896168236726 * u3_t7_h22 + 6.02896168236726 * u3_t8_h22 + 5.49641827749868 * u3_t1_h23 + 5.49641827749868 * u3_t7_h23 + 5.49641827749868 * u3_t8_h23;
0 <= u3_t1_h20 <= 1;
0 <= u3_t1_h21 <= 1;
0 <= u3_t1_h22 <= 1;
0 <= u3_t1_h23 <= 1;
u3_t1_h20 + u3_t1_h21 + u3_t1_h22 + u3_t1_h23 = 2;
0 <= u3_t2_h15 <= 1;
0 <= u3_t2_h16 <= 1;
0 <= u3_t2_h17 <= 1;
0 <= u3_t2_h18 <= 1;
0 <= u3_t2_h19 <= 1;
0 <= u3_t2_h20 <= 1;
0 <= u3_t2_h21 <= 1;
u3_t2_h15 + u3_t2_h16 + u3_t2_h17 + u3_t2_h18 + u3_t2_h19 + u3_t2_h20 + u3_t2_h21 = 3;
0 <= u3_t3_h11 <= 1;
0 <= u3_t3_h12 <= 1;
0 <= u3_t3_h13 <= 1;
0 <= u3_t3_h14 <= 1;
0 <= u3_t3_h15 <= 1;
u3_t3_h11 + u3_t3_h12 + u3_t3_h13 + u3_t3_h14 + u3_t3_h15 = 2;
0 <= u3_t4_h2 <= 1;
0 <= u3_t4_h3 <= 1;
0 <= u3_t4_h4 <= 1;
0 <= u3_t4_h5 <= 1;
0 <= u3_t4_h6 <= 1;
0 <= u3_t4_h7 <= 1;
0 <= u3_t4_h8 <= 1;
0 <= u3_t4_h9 <= 1;
0 <= u3_t4_h10 <= 1;
0 <= u3_t4_h11 <= 1;
0 <= u3_t4_h12 <= 1;
0 <= u3_t4_h13 <= 1;
0 <= u3_t4_h14 <= 1;
0 <= u3_t4_h15 <= 1;
0 <= u3_t4_h16 <= 1;
0 <= u3_t4_h17 <= 1;
u3_t4_h2 + u3_t4_h3 + u3_t4_h4 + u3_t4_h5 + u3_t4_h6 + u3_t4_h7 + u3_t4_h8 + u3_t4_h9 + u3_t4_h10 + u3_t4_h11 + u3_t4_h12 + u3_t4_h13 + u3_t4_h14 + u3_t4_h15 + u3_t4_h16 + u3_t4_h17 = 3;
0 <= u3_t5_h13 <= 1;
0 <= u3_t5_h14 <= 1;
0 <= u3_t5_h15 <= 1;
0 <= u3_t5_h16 <= 1;
u3_t5_h13 + u3_t5_h14 + u3_t5_h15 + u3_t5_h16 = 2;
0 <= u3_t6_h10 <= 1;
0 <= u3_t6_h11 <= 1;
0 <= u3_t6_h12 <= 1;
0 <= u3_t6_h13 <= 1;
0 <= u3_t6_h14 <= 1;
0 <= u3_t6_h15 <= 1;
0 <= u3_t6_h16 <= 1;
0 <= u3_t6_h17 <= 1;
0 <= u3_t6_h18 <= 1;
u3_t6_h10 + u3_t6_h11 + u3_t6_h12 + u3_t6_h13 + u3_t6_h14 + u3_t6_h15 + u3_t6_h16 + u3_t6_h17 + u3_t6_h18 = 2;
0 <= u3_t7_h21 <= 1;
0 <= u3_t7_h22 <= 1;
0 <= u3_t7_h23 <= 1;
u3_t7_h21 + u3_t7_h22 + u3_t7_h23 = 2;
0 <= u3_t8_h20 <= 1;
0 <= u3_t8_h21 <= 1;
0 <= u3_t8_h22 <= 1;
0 <= u3_t8_h23 <= 1;
u3_t8_h20 + u3_t8_h21 + u3_t8_h22 + u3_t8_h23 = 1;
0 <= u3_t9_h7 <= 1;
0 <= u3_t9_h8 <= 1;
0 <= u3_t9_h9 <= 1;
0 <= u3_t9_h10 <= 1;
0 <= u3_t9_h11 <= 1;
0 <= u3_t9_h12 <= 1;
0 <= u3_t9_h13 <= 1;
0 <= u3_t9_h14 <= 1;
0 <= u3_t9_h15 <= 1;
0 <= u3_t9_h16 <= 1;
0 <= u3_t9_h17 <= 1;
0 <= u3_t9_h18 <= 1;
0 <= u3_t9_h19 <= 1;
0 <= u3_t9_h20 <= 1;
0 <= u3_t9_h21 <= 1;
u3_t9_h7 + u3_t9_h8 + u3_t9_h9 + u3_t9_h10 + u3_t9_h11 + u3_t9_h12 + u3_t9_h13 + u3_t9_h14 + u3_t9_h15 + u3_t9_h16 + u3_t9_h17 + u3_t9_h18 + u3_t9_h19 + u3_t9_h20 + u3_t9_h21 = 2;
0 <= u3_t10_h0 <= 1;
0 <= u3_t10_h1 <= 1;
0 <= u3_t10_h2 <= 1;
0 <= u3_t10_h3 <= 1;
0 <= u3_t10_h4 <= 1;
0 <= u3_t10_h5 <= 1;
0 <= u3_t10_h6 <= 1;
0 <= u3_t10_h7 <= 1;
u3_t10_h0 + u3_t10_h1 + u3_t10_h2 + u3_t10_h3 + u3_t10_h4 + u3_t10_h5 + u3_t10_h6 + u3_t10_h7 = 3;
